Pt 
 1.0000000000000000
    11.0789490476308270    0.0000000000000000    0.0000000000000000
     5.5394745238154135    9.5946513224817078    0.0000000000000000
     0.0000000000000000    0.0000000000000000   26.7844430132472944
  64
Selective dynamics
Cartesian
  1.6156800694461615  0.3997771384367379 10.0000000000000000   F   F   F
  4.3854173313538682  0.3997771384367379 10.0000000000000000   F   F   F
  7.1551545932615745  0.3997771384367379 10.0000000000000000   F   F   F
  9.9248918551692817  0.3997771384367379 10.0000000000000000   F   F   F
  3.0005487004000146  2.7984399690571649 10.0000000000000000   F   F   F
  5.7702859623077210  2.7984399690571649 10.0000000000000000   F   F   F
  8.5400232242154281  2.7984399690571649 10.0000000000000000   F   F   F
 11.3097604861231353  2.7984399690571649 10.0000000000000000   F   F   F
  4.3854173313538682  5.1971027996775918 10.0000000000000000   F   F   F
  7.1551545932615745  5.1971027996775918 10.0000000000000000   F   F   F
  9.9248918551692817  5.1971027996775918 10.0000000000000000   F   F   F
 12.6946291170769889  5.1971027996775918 10.0000000000000000   F   F   F
  5.7702859623077210  7.5957656302980183 10.0000000000000000   F   F   F
  8.5400232242154281  7.5957656302980183 10.0000000000000000   F   F   F
 11.3097604861231353  7.5957656302980183 10.0000000000000000   F   F   F
 14.0794977480308408  7.5957656302980183 10.0000000000000000   F   F   F
  3.0005487004000146  1.1993314153102135 12.2614810044157636   F   F   F
  5.7702859623077210  1.1993314153102135 12.2614810044157636   F   F   F
  8.5400232242154281  1.1993314153102135 12.2614810044157636   F   F   F
 11.3097604861231371  1.1993314153102135 12.2614810044157636   F   F   F
  4.3854173313538682  3.5979942459306402 12.2614810044157636   F   F   F
  7.1551545932615745  3.5979942459306402 12.2614810044157636   F   F   F
  9.9248918551692835  3.5979942459306402 12.2614810044157636   F   F   F
 12.6946291170769907  3.5979942459306402 12.2614810044157636   F   F   F
  5.7702859623077227  5.9966570765510676 12.2614810044157636   F   F   F
  8.5400232242154281  5.9966570765510676 12.2614810044157636   F   F   F
 11.3097604861231371  5.9966570765510676 12.2614810044157636   F   F   F
 14.0794977480308443  5.9966570765510676 12.2614810044157636   F   F   F
  7.1551545932615763  8.3953199071714941 12.2614810044157636   F   F   F
  9.9248918551692835  8.3953199071714941 12.2614810044157636   F   F   F
 12.6946291170769907  8.3953199071714941 12.2614810044157636   F   F   F
 15.4643663789846979  8.3953199071714941 12.2614810044157636   F   F   F
  1.6156800694461615  1.9988856921836891 14.5229620088315290   T   T   T
  4.3854173313538691  1.9988856921836891 14.5229620088315290   T   T   T
  7.1551545932615763  1.9988856921836891 14.5229620088315290   T   T   T
  9.9248918551692817  1.9988856921836891 14.5229620088315290   T   T   T
  3.0005487004000146  4.3975485228041160 14.5229620088315290   T   T   T
  5.7702859623077210  4.3975485228041160 14.5229620088315290   T   T   T
  8.5400232242154281  4.3975485228041160 14.5229620088315290   T   T   T
 11.3097604861231353  4.3975485228041160 14.5229620088315290   T   T   T
  4.3854173313538682  6.7962113534245425 14.5229620088315290   T   T   T
  7.1551545932615745  6.7962113534245425 14.5229620088315290   T   T   T
  9.9248918551692835  6.7962113534245425 14.5229620088315290   T   T   T
 12.6946291170769889  6.7962113534245425 14.5229620088315290   T   T   T
  5.7702859623077227  9.1948741840449699 14.5229620088315290   T   T   T
  8.5400232242154281  9.1948741840449699 14.5229620088315290   T   T   T
 11.3097604861231371  9.1948741840449699 14.5229620088315290   T   T   T
 14.0794977480308425  9.1948741840449699 14.5229620088315290   T   T   T
  1.6156800694461615  0.3997771384367379 16.7844430132472944   T   T   T
  4.3854173313538682  0.3997771384367379 16.7844430132472944   T   T   T
  7.1551545932615745  0.3997771384367379 16.7844430132472944   T   T   T
  9.9248918551692817  0.3997771384367379 16.7844430132472944   T   T   T
  3.0005487004000146  2.7984399690571649 16.7844430132472944   T   T   T
  5.7702859623077210  2.7984399690571649 16.7844430132472944   T   T   T
  8.5400232242154281  2.7984399690571649 16.7844430132472944   T   T   T
 11.3097604861231353  2.7984399690571649 16.7844430132472944   T   T   T
  4.3854173313538682  5.1971027996775918 16.7844430132472944   T   T   T
  7.1551545932615745  5.1971027996775918 16.7844430132472944   T   T   T
  9.9248918551692817  5.1971027996775918 16.7844430132472944   T   T   T
 12.6946291170769889  5.1971027996775918 16.7844430132472944   T   T   T
  5.7702859623077210  7.5957656302980183 16.7844430132472944   T   T   T
  8.5400232242154281  7.5957656302980183 16.7844430132472944   T   T   T
 11.3097604861231353  7.5957656302980183 16.7844430132472944   T   T   T
 14.0794977480308408  7.5957656302980183 16.7844430132472944   T   T   T
